c 1 __UCLIBC_HAS_CTYPE_TABLES__
c 8 __UCLIBC_HAS_IPV6__
c 2 __UCLIBC_HAS_THREADS_NATIVE__
c 6 __UCLIBC_HAS_SOCKET__
c 9 __UCLIBC_HAS_IPV4__
c 3 __UCLIBC_HAS_XLOCALE__
c 5 __UCLIBC_HAS_LOCALE__
c 7 __LINUXTHREADS_NEW__
c 4 __UCLIBC_HAS_THREADS__
p cnf 9 3
2 -1 -6 -3 -4 5 -7 1
-8 2 -1 -3 -4 5 -7 1
-9 2 -1 -3 -4 5 -7 1
